
Starting CP-SAT solver v9.14.6206
Parameters: log_search_progress: true relative_gap_limit: 0
Setting number of workers to 20

Initial optimization model '': (model_fingerprint: 0xaee9c4e9a4ba5615)
#Variables: 201 (#ints: 1 in objective) (200 primary variables)
  - 201 in [0,5109]
#kInterval: 100
#kLinear1: 10
#kLinear2: 100
#kNoOverlap: 10 (#intervals: 100)

Starting presolve at 0.00s
  4.82e-05s  0.00e+00d  [DetectDominanceRelations] 
  1.10e-03s  0.00e+00d  [operations_research::sat::CpModelPresolver::PresolveToFixPoint] #num_loops=10 #num_dual_strengthening=1 
  6.50e-06s  0.00e+00d  [operations_research::sat::CpModelPresolver::ExtractEncodingFromLinear] 
  2.16e-05s  0.00e+00d  [operations_research::sat::CpModelPresolver::DetectDuplicateColumns] 
  5.26e-05s  0.00e+00d  [operations_research::sat::CpModelPresolver::DetectDuplicateConstraints] 
[Symmetry] Graph for symmetry has 502 nodes and 491 arcs.
[Symmetry] Symmetry computation done. time: 3.97e-05 dtime: 4.668e-05
  4.16e-05s  0.00e+00d  [operations_research::sat::CpModelPresolver::DetectDuplicateConstraintsWithDifferentEnforcements] 
  4.58e-04s  1.51e-06d  [operations_research::sat::CpModelPresolver::Probe] 
  8.80e-06s  0.00e+00d  [MaxClique] 
  2.95e-05s  0.00e+00d  [DetectDominanceRelations] 
  2.00e-04s  0.00e+00d  [operations_research::sat::CpModelPresolver::PresolveToFixPoint] #num_loops=1 #num_dual_strengthening=1 
  2.30e-05s  0.00e+00d  [operations_research::sat::CpModelPresolver::ProcessAtMostOneAndLinear] 
  3.66e-05s  0.00e+00d  [operations_research::sat::CpModelPresolver::DetectDuplicateConstraints] 
  3.49e-05s  0.00e+00d  [operations_research::sat::CpModelPresolver::DetectDuplicateConstraintsWithDifferentEnforcements] 
  2.58e-05s  6.00e-07d  [operations_research::sat::CpModelPresolver::DetectDominatedLinearConstraints] #relevant_constraints=100 
  2.14e-05s  0.00e+00d  [operations_research::sat::CpModelPresolver::DetectDifferentVariables] 
  2.70e-06s  0.00e+00d  [operations_research::sat::CpModelPresolver::ProcessSetPPC] 
  4.80e-06s  0.00e+00d  [operations_research::sat::CpModelPresolver::FindAlmostIdenticalLinearConstraints] 
  6.30e-06s  0.00e+00d  [operations_research::sat::CpModelPresolver::FindBigAtMostOneAndLinearOverlap] 
  1.80e-05s  3.60e-06d  [operations_research::sat::CpModelPresolver::FindBigVerticalLinearOverlap] 
  2.90e-06s  0.00e+00d  [operations_research::sat::CpModelPresolver::FindBigHorizontalLinearOverlap] 
  3.80e-06s  0.00e+00d  [operations_research::sat::CpModelPresolver::MergeClauses] 
  2.73e-05s  0.00e+00d  [DetectDominanceRelations] 
  1.77e-04s  0.00e+00d  [operations_research::sat::CpModelPresolver::PresolveToFixPoint] #num_loops=1 #num_dual_strengthening=1 
  2.61e-05s  0.00e+00d  [DetectDominanceRelations] 
  1.77e-04s  0.00e+00d  [operations_research::sat::CpModelPresolver::PresolveToFixPoint] #num_loops=1 #num_dual_strengthening=1 
  8.80e-06s  0.00e+00d  [operations_research::sat::CpModelPresolver::DetectDuplicateColumns] 
  3.79e-05s  0.00e+00d  [operations_research::sat::CpModelPresolver::DetectDuplicateConstraints] 
[Symmetry] Graph for symmetry has 502 nodes and 491 arcs.
[Symmetry] Symmetry computation done. time: 2.6e-05 dtime: 4.668e-05
  4.36e-05s  0.00e+00d  [operations_research::sat::CpModelPresolver::DetectDuplicateConstraintsWithDifferentEnforcements] 
  3.33e-04s  1.51e-06d  [operations_research::sat::CpModelPresolver::Probe] 
  3.10e-06s  0.00e+00d  [MaxClique] 
  2.92e-05s  0.00e+00d  [DetectDominanceRelations] 
  1.93e-04s  0.00e+00d  [operations_research::sat::CpModelPresolver::PresolveToFixPoint] #num_loops=1 #num_dual_strengthening=1 
  2.19e-05s  0.00e+00d  [operations_research::sat::CpModelPresolver::ProcessAtMostOneAndLinear] 
  3.79e-05s  0.00e+00d  [operations_research::sat::CpModelPresolver::DetectDuplicateConstraints] 
  3.70e-05s  0.00e+00d  [operations_research::sat::CpModelPresolver::DetectDuplicateConstraintsWithDifferentEnforcements] 
  2.07e-05s  6.00e-07d  [operations_research::sat::CpModelPresolver::DetectDominatedLinearConstraints] #relevant_constraints=100 
  1.88e-05s  0.00e+00d  [operations_research::sat::CpModelPresolver::DetectDifferentVariables] 
  2.30e-06s  0.00e+00d  [operations_research::sat::CpModelPresolver::ProcessSetPPC] 
  2.80e-06s  0.00e+00d  [operations_research::sat::CpModelPresolver::FindAlmostIdenticalLinearConstraints] 
  5.40e-06s  0.00e+00d  [operations_research::sat::CpModelPresolver::FindBigAtMostOneAndLinearOverlap] 
  1.49e-05s  3.60e-06d  [operations_research::sat::CpModelPresolver::FindBigVerticalLinearOverlap] 
  1.60e-06s  0.00e+00d  [operations_research::sat::CpModelPresolver::FindBigHorizontalLinearOverlap] 
  3.10e-06s  0.00e+00d  [operations_research::sat::CpModelPresolver::MergeClauses] 
  2.74e-05s  0.00e+00d  [DetectDominanceRelations] 
  1.85e-04s  0.00e+00d  [operations_research::sat::CpModelPresolver::PresolveToFixPoint] #num_loops=1 #num_dual_strengthening=1 
  6.80e-06s  0.00e+00d  [operations_research::sat::CpModelPresolver::ExpandObjective] 

Presolve summary:
  - 100 affine relations were detected.
  - rule 'TODO dual: only one blocking constraint?' was applied 60 times.
  - rule 'TODO dual: only one unspecified blocking constraint?' was applied 6 times.
  - rule 'affine: new relation' was applied 100 times.
  - rule 'linear: always true' was applied 10 times.
  - rule 'linear: reduced variable domains' was applied 554 times.
  - rule 'linear: remapped using affine relations' was applied 200 times.
  - rule 'presolve: 0 unused variables removed.' was applied 1 time.
  - rule 'presolve: iteration' was applied 2 times.

Presolved optimization model '': (model_fingerprint: 0x2d5c0ed2cb8ea8f9)
#Variables: 101 (#ints: 1 in objective) (100 primary variables)
  - 101 different domains in [0,5109] with a largest complexity of 1.
#kInterval: 100
#kLinear2: 100
#kNoOverlap: 10 (#intervals: 100)
[Symmetry] Graph for symmetry has 402 nodes and 491 arcs.
[Symmetry] Symmetry computation done. time: 2.83e-05 dtime: 4.068e-05

Preloading model.
#Bound   0.01s best:inf   next:[655,5109] initial_domain
#Model   0.01s var:101/101 constraints:210/210

Starting search at 0.01s with 20 workers.
13 full problem subsolvers: [default_lp, fixed, lb_tree_search, max_lp, no_lp, objective_lb_search, objective_shaving_max_lp, objective_shaving_no_lp, probing, pseudo_costs, quick_restart, quick_restart_no_lp, reduced_costs]
7 first solution subsolvers: [fj(2), fj_lin, fs_random, fs_random_no_lp, fs_random_quick_restart, fs_random_quick_restart_no_lp]
17 interleaved subsolvers: [feasibility_pump, graph_arc_lns, graph_cst_lns, graph_dec_lns, graph_var_lns, lb_relax_lns, ls(2), ls_lin, rins/rens, rnd_cst_lns, rnd_var_lns, scheduling_intervals_lns, scheduling_precedences_lns, scheduling_resource_windows_lns, scheduling_time_window_lns, variables_shaving]
3 helper subsolvers: [neighborhood_helper, synchronization_agent, update_gap_integral]

#1       0.01s best:1108  next:[655,1107] no_lp
#Bound   0.01s best:1108  next:[808,1107] no_lp
#2       0.01s best:1104  next:[808,1103] default_lp
#3       0.01s best:1098  next:[808,1097] no_lp
#4       0.02s best:1096  next:[808,1095] graph_cst_lns (d=5.00e-01 s=24 t=0.10 p=0.00 stall=0 h=base)
#5       0.03s best:1076  next:[808,1075] default_lp
#6       0.03s best:1074  next:[808,1073] default_lp
#7       0.03s best:1070  next:[808,1069] default_lp
#8       0.03s best:1067  next:[808,1066] default_lp
#9       0.03s best:1024  next:[808,1023] no_lp
#Bound   0.04s best:1024  next:[814,1023] objective_shaving_no_lp (vars=100 csts=200)
#10      0.04s best:1023  next:[814,1022] quick_restart_no_lp
#11      0.04s best:1022  next:[814,1021] quick_restart_no_lp
#12      0.05s best:1020  next:[814,1019] quick_restart_no_lp
#13      0.05s best:1016  next:[814,1015] graph_cst_lns (d=7.07e-01 s=43 t=0.10 p=1.00 stall=0 h=base)
#Bound   0.05s best:1016  next:[829,1015] objective_lb_search
#Bound   0.05s best:1016  next:[834,1015] objective_lb_search
#Bound   0.05s best:1016  next:[835,1015] objective_lb_search
#Bound   0.05s best:1016  next:[836,1015] objective_lb_search
#Bound   0.05s best:1016  next:[841,1015] objective_lb_search
#Bound   0.05s best:1016  next:[844,1015] objective_lb_search
#Bound   0.06s best:1016  next:[863,1015] objective_lb_search
#Bound   0.06s best:1016  next:[864,1015] objective_lb_search
#Bound   0.06s best:1016  next:[865,1015] objective_lb_search
#14      0.06s best:1006  next:[865,1005] scheduling_resource_windows_lns (d=7.07e-01 s=46 t=0.10 p=1.00 stall=0 h=base)
#15      0.09s best:1004  next:[865,1003] quick_restart
#16      0.10s best:1003  next:[865,1002] ls_lin_restart_compound_perturb(batch:1 lin{mvs:0 evals:2} gen{mvs:9 evals:7} comp{mvs:3 btracks:3} #w_updates:0 #perturb:0)
#17      0.10s best:999   next:[865,998]  quick_restart_no_lp
#18      0.10s best:998   next:[865,997]  ls_restart_decay(batch:1 lin{mvs:0 evals:0} gen{mvs:10 evals:147} #w_updates:63 #perturb:0)
#19      0.11s best:997   next:[865,996]  rnd_var_lns (d=8.14e-01 s=56 t=0.10 p=1.00 stall=0 h=base) [hint]
#20      0.12s best:994   next:[865,993]  rnd_cst_lns (d=8.14e-01 s=57 t=0.10 p=1.00 stall=0 h=base)
#Bound   0.12s best:994   next:[870,993]  objective_lb_search
#21      0.12s best:987   next:[870,986]  scheduling_precedences_lns (d=7.07e-01 s=47 t=0.10 p=1.00 stall=0 h=base)
#22      0.12s best:975   next:[870,974]  lb_relax_lns_bool_h (d=7.07e-01 s=45 t=0.50 p=1.00 stall=0 h=base)
#Bound   0.13s best:975   next:[871,974]  reduced_costs
#23      0.14s best:973   next:[871,972]  quick_restart_no_lp
#24      0.14s best:970   next:[871,969]  quick_restart_no_lp
#25      0.15s best:967   next:[871,966]  quick_restart_no_lp
#26      0.15s best:962   next:[871,961]  rnd_var_lns (d=8.76e-01 s=72 t=0.10 p=1.00 stall=0 h=base)
#27      0.15s best:961   next:[871,960]  quick_restart_no_lp
#28      0.16s best:956   next:[871,955]  quick_restart_no_lp
#Bound   0.16s best:956   next:[872,955]  reduced_costs
#29      0.17s best:955   next:[872,954]  quick_restart_no_lp
#30      0.18s best:954   next:[872,953]  quick_restart_no_lp
#Bound   0.18s best:954   next:[873,953]  reduced_costs
#31      0.19s best:945   next:[873,944]  graph_arc_lns (d=8.76e-01 s=75 t=0.10 p=1.00 stall=0 h=base)
#32      0.20s best:944   next:[873,943]  quick_restart_no_lp
#33      0.22s best:939   next:[873,938]  rnd_cst_lns (d=9.14e-01 s=86 t=0.10 p=1.00 stall=1 h=base)
#Bound   0.25s best:939   next:[874,938]  reduced_costs
#Bound   0.28s best:939   next:[875,938]  reduced_costs
#Bound   0.31s best:939   next:[876,938]  reduced_costs
#Bound   0.34s best:939   next:[877,938]  reduced_costs
#Bound   0.42s best:939   next:[878,938]  reduced_costs
#34      0.75s best:938   next:[883,937]  scheduling_intervals_lns (d=7.07e-01 s=115 t=0.10 p=1.00 stall=0 h=base)
#35      0.97s best:936   next:[886,935]  probing
#Bound   0.98s best:936   next:[887,935]  reduced_costs [skipped_logs=8]
#36      1.43s best:935   next:[891,934]  quick_restart_no_lp
#37      1.49s best:933   next:[891,932]  quick_restart
#38      1.50s best:932   next:[891,931]  quick_restart_no_lp
#39      1.50s best:931   next:[891,930]  quick_restart
#40      1.51s best:930   next:[891,929]  quick_restart_no_lp
#Bound   1.94s best:930   next:[897,929]  reduced_costs [skipped_logs=9]
#Done    2.68s no_lp
#Done    2.68s probing
#Bound   2.64s best:930   next:[910,929]  no_lp [skipped_logs=11]

Task timing                                  n [     min,      max]      avg      dev     time         n [     min,      max]      avg      dev    dtime
                       'default_lp':         1 [   2.67s,    2.67s]    2.67s   0.00ns    2.67s         1 [712.81ms, 712.81ms] 712.81ms   0.00ns 712.81ms
                 'feasibility_pump':        14 [ 75.10us,   1.49ms] 225.54us 382.23us   3.16ms        13 [ 13.78us,  73.96us]  18.41us  16.04us 239.27us
                            'fixed':         1 [   2.67s,    2.67s]    2.67s   0.00ns    2.67s         1 [312.90ms, 312.90ms] 312.90ms   0.00ns 312.90ms
                               'fj':         0 [  0.00ns,   0.00ns]   0.00ns   0.00ns   0.00ns         0 [  0.00ns,   0.00ns]   0.00ns   0.00ns   0.00ns
                               'fj':         1 [ 99.72ms,  99.72ms]  99.72ms   0.00ns  99.72ms         1 [100.08ms, 100.08ms] 100.08ms   0.00ns 100.08ms
                           'fj_lin':         0 [  0.00ns,   0.00ns]   0.00ns   0.00ns   0.00ns         0 [  0.00ns,   0.00ns]   0.00ns   0.00ns   0.00ns
                        'fs_random':         1 [153.10us, 153.10us] 153.10us   0.00ns 153.10us         0 [  0.00ns,   0.00ns]   0.00ns   0.00ns   0.00ns
                  'fs_random_no_lp':         1 [160.10us, 160.10us] 160.10us   0.00ns 160.10us         0 [  0.00ns,   0.00ns]   0.00ns   0.00ns   0.00ns
          'fs_random_quick_restart':         1 [164.10us, 164.10us] 164.10us   0.00ns 164.10us         0 [  0.00ns,   0.00ns]   0.00ns   0.00ns   0.00ns
    'fs_random_quick_restart_no_lp':         1 [118.00us, 118.00us] 118.00us   0.00ns 118.00us         0 [  0.00ns,   0.00ns]   0.00ns   0.00ns   0.00ns
                    'graph_arc_lns':        10 [  3.19ms, 720.21ms] 145.10ms 208.74ms    1.45s        10 [ 12.23us,  74.08ms]  14.16ms  21.61ms 141.59ms
                    'graph_cst_lns':        14 [  4.23ms, 927.49ms] 134.88ms 235.34ms    1.89s        14 [ 64.37us, 100.10ms]  13.10ms  25.34ms 183.41ms
                    'graph_dec_lns':        10 [  3.18ms, 913.89ms] 141.19ms 275.83ms    1.41s        10 [  2.86us, 100.02ms]  14.73ms  30.21ms 147.32ms
                    'graph_var_lns':        11 [  3.07ms, 959.83ms] 130.65ms 268.51ms    1.44s        11 [  4.56us, 100.13ms]  12.69ms  28.16ms 139.57ms
                     'lb_relax_lns':         6 [167.40us,    2.56s] 501.04ms 926.70ms    3.01s         5 [422.01us, 422.06ms]  92.80ms 165.00ms 463.98ms
                   'lb_tree_search':         1 [   2.67s,    2.67s]    2.67s   0.00ns    2.67s         1 [394.69ms, 394.69ms] 394.69ms   0.00ns 394.69ms
                               'ls':        14 [ 45.81ms, 116.97ms] 100.09ms  16.66ms    1.40s        14 [ 44.21ms, 100.02ms]  96.02ms  14.37ms    1.34s
                               'ls':        14 [464.80us, 107.73ms]  92.86ms  26.23ms    1.30s        14 [386.88us, 100.03ms]  92.90ms  25.66ms    1.30s
                           'ls_lin':        14 [150.90us, 115.81ms]  91.91ms  27.14ms    1.29s        14 [ 23.16us, 100.06ms]  91.38ms  25.90ms    1.28s
                           'max_lp':         1 [   2.67s,    2.67s]    2.67s   0.00ns    2.67s         1 [516.74ms, 516.74ms] 516.74ms   0.00ns 516.74ms
                            'no_lp':         1 [   2.67s,    2.67s]    2.67s   0.00ns    2.67s         1 [270.20ms, 270.20ms] 270.20ms   0.00ns 270.20ms
              'objective_lb_search':         1 [   2.67s,    2.67s]    2.67s   0.00ns    2.67s         1 [440.95ms, 440.95ms] 440.95ms   0.00ns 440.95ms
         'objective_shaving_max_lp':        15 [831.60us,   8.06ms]   6.15ms   2.10ms  92.25ms        13 [ 12.55us,  20.28us]  16.91us   2.55us 219.86us
          'objective_shaving_no_lp':        15 [  1.40ms,   8.30ms]   6.17ms   1.40ms  92.53ms        14 [ 12.24us,  40.12us]  18.27us   6.55us 255.78us
                          'probing':         1 [   2.67s,    2.67s]    2.67s   0.00ns    2.67s         1 [251.89ms, 251.89ms] 251.89ms   0.00ns 251.89ms
                     'pseudo_costs':         1 [   2.67s,    2.67s]    2.67s   0.00ns    2.67s         1 [543.68ms, 543.68ms] 543.68ms   0.00ns 543.68ms
                    'quick_restart':         1 [   2.67s,    2.67s]    2.67s   0.00ns    2.67s         1 [334.06ms, 334.06ms] 334.06ms   0.00ns 334.06ms
              'quick_restart_no_lp':         1 [   2.67s,    2.67s]    2.67s   0.00ns    2.67s         1 [396.79ms, 396.79ms] 396.79ms   0.00ns 396.79ms
                    'reduced_costs':         1 [   2.67s,    2.67s]    2.67s   0.00ns    2.67s         1 [319.13ms, 319.13ms] 319.13ms   0.00ns 319.13ms
                        'rins/rens':        15 [ 38.00us, 289.96ms]  59.46ms  91.63ms 891.97ms        10 [ 29.66us,  25.45ms]   7.84ms   9.12ms  78.43ms
                      'rnd_cst_lns':        10 [  2.66ms, 886.03ms] 146.80ms 274.94ms    1.47s        10 [  1.39us, 100.09ms]  15.21ms  30.68ms 152.06ms
                      'rnd_var_lns':        12 [  2.71ms, 967.18ms] 118.37ms 272.59ms    1.42s        12 [  8.27us, 100.01ms]  11.79ms  28.30ms 141.54ms
         'scheduling_intervals_lns':         4 [107.77ms, 960.16ms] 430.54ms 326.99ms    1.72s         4 [  6.70ms, 100.02ms]  41.68ms  36.27ms 166.73ms
       'scheduling_precedences_lns':         6 [ 19.66ms,    1.01s] 282.56ms 358.83ms    1.70s         6 [602.89us, 100.00ms]  26.89ms  35.84ms 161.33ms
  'scheduling_resource_windows_lns':        14 [  6.90ms,  14.06ms]   8.36ms   1.95ms 117.06ms        14 [ 13.52us, 395.84us]  72.54us 118.58us   1.02ms
       'scheduling_time_window_lns':         4 [ 46.40ms, 932.53ms] 426.01ms 359.28ms    1.70s         4 [  2.73ms, 100.09ms]  43.88ms  39.71ms 175.52ms
                'variables_shaving':         4 [ 12.76ms, 699.46ms] 381.52ms 253.30ms    1.53s         4 [369.40us, 100.00ms]  48.94ms  38.40ms 195.76ms

Search stats                        Bools  Conflicts  Branches  Restarts  BoolPropag  IntegerPropag
                     'default_lp':  3'627      6'116    24'436     2'977   5'046'999      1'797'686
                          'fixed':  1'201      7'134    11'127       204     969'720      1'102'763
                      'fs_random':      0          0         0         0           0              0
                'fs_random_no_lp':      0          0         0         0           0              0
        'fs_random_quick_restart':      0          0         0         0           0              0
  'fs_random_quick_restart_no_lp':      0          0         0         0           0              0
                 'lb_tree_search':    450        793    15'609     3'847     307'364        564'553
                         'max_lp':  2'596      4'075    19'376     2'369   2'141'698      1'132'955
                          'no_lp':    390      5'876    18'231     2'245     383'934      1'642'342
            'objective_lb_search':  1'298      7'119    15'950     3'193   1'782'131      1'724'223
                        'probing':    900      2'516    13'462     6'440     547'608        825'071
                   'pseudo_costs':  2'561      4'111    19'664     2'477   2'176'527      1'175'564
                  'quick_restart':  2'038      3'498    19'605     1'963   1'338'879      1'452'168
            'quick_restart_no_lp':  2'207      4'097    23'998     1'897   1'717'790      1'685'521
                  'reduced_costs':    490      1'056    14'974     5'868     243'424        433'893

SAT stats                           ClassicMinim  LitRemoved  LitLearned  LitForgotten  Subsumed  MClauses  MDecisions  MLitTrue  MSubsumed  MLitRemoved  MReused
                     'default_lp':         5'610      24'706      23'910             0        14     3'205       6'623       120      1'206        5'835    1'511
                          'fixed':         5'869      20'199     127'433             0        45         0           0         0          0            0        0
                      'fs_random':             0           0           0             0         0         0           0         0          0            0        0
                'fs_random_no_lp':             0           0           0             0         0         0           0         0          0            0        0
        'fs_random_quick_restart':             0           0           0             0         0         0           0         0          0            0        0
  'fs_random_quick_restart_no_lp':             0           0           0             0         0         0           0         0          0            0        0
                 'lb_tree_search':           609       4'241       8'862             0        22       424       1'297         0         62          398       47
                         'max_lp':         3'363      11'254      27'412             0        33     2'190       6'000         2      1'017        5'532      656
                          'no_lp':         5'418      32'053      48'956             0        45     1'255       3'984        12        545        3'121      216
            'objective_lb_search':         5'509      16'389      35'972             0        39     3'630       5'012         0      2'655       11'002    1'317
                        'probing':         2'059      20'306      29'022             0        29       401       1'980        38        226        2'387       24
                   'pseudo_costs':         3'449      12'688      32'785             0        24     2'437       7'117         7      1'043        5'758    1'176
                  'quick_restart':         3'046      16'889      29'283             0        26       987       2'569        19        348        1'713      298
            'quick_restart_no_lp':         3'703      21'828      37'093             0        24       822       2'378         0        227        1'106      171
                  'reduced_costs':           837       5'833       4'790             0        24         1           2         0          1            4        0

Lp stats                  Component  Iterations  AddedCuts  OPTIMAL  DUAL_F.  DUAL_U.
           'default_lp':          1           0          0   10'932        0        0
                'fixed':          1           0          0   43'006        0        0
       'lb_tree_search':          1      24'992        428   10'404      422        0
               'max_lp':          1      15'702        841    8'970      275        0
  'objective_lb_search':          1           0          0   22'244        0        0
              'probing':          1           0          0   25'787        0        0
         'pseudo_costs':          1      13'937      1'042    7'803      225        0
        'quick_restart':          1           0          0   20'679        0        0
        'reduced_costs':          1      14'986      1'646    4'901      304        0

Lp dimension              Final dimension of first component
           'default_lp':      0 rows, 101 columns, 0 entries
                'fixed':      0 rows, 101 columns, 0 entries
       'lb_tree_search':  112 rows, 101 columns, 279 entries
               'max_lp':  128 rows, 101 columns, 319 entries
  'objective_lb_search':      0 rows, 101 columns, 0 entries
              'probing':      0 rows, 101 columns, 0 entries
         'pseudo_costs':  179 rows, 101 columns, 513 entries
        'quick_restart':      0 rows, 101 columns, 0 entries
        'reduced_costs':  166 rows, 101 columns, 458 entries

Lp debug                  CutPropag  CutEqPropag  Adjust  Overflow     Bad  BadScaling
           'default_lp':          0            0       0         0       0           0
                'fixed':          0            0       0         0       0           0
       'lb_tree_search':          0            8       0         0   4'223           0
               'max_lp':          0            5       0         0   3'607           0
  'objective_lb_search':          0            0       0         0       0           0
              'probing':          0            0       0         0       0           0
         'pseudo_costs':          0           13       0         0   2'450           0
        'quick_restart':          0            0       0         0       0           0
        'reduced_costs':          0           39       0         0  18'329           0

Lp pool                   Constraints  Updates  Simplif  Merged  Shortened  Split  Strenghtened    Cuts/Call
           'default_lp':          100        0       14       0          0      0             0          0/0
                'fixed':          100        0        0       0          0      0             0          0/0
       'lb_tree_search':          502      538       75      26          0      0             4      428/629
               'max_lp':          817      424    1'216     124          0      0            26    841/1'197
  'objective_lb_search':          100        0        9       0          0      0             0          0/0
              'probing':          100        0        0       0          0      0             0          0/0
         'pseudo_costs':          917      443      792     225          0      0            30  1'042/1'568
        'quick_restart':          100        0       20       0          0      0             0          0/0
        'reduced_costs':        1'512    1'263    8'051     234          0      2            61  1'646/2'935

Lp Cut                                                max_lp  reduced_costs  pseudo_costs  lb_tree_search
                                              CG_FF:       4              -             -               -
                                               CG_K:      18             21             5               -
                                               CG_R:      15             67            40               4
                                            MIR_1_K:       2              4             -               -
                                            MIR_1_R:       5             17            11               1
                                            MIR_2_K:       2              2             1               -
                                            MIR_2_R:       1              6             1               -
                                           MIR_3_FF:       1              -             -               -
                                            MIR_3_K:       1              2             -               -
                                            MIR_3_R:       1              3             -               -
                                            MIR_4_R:       1              1             1               -
                                            MIR_5_R:       -              -             1               -
                                            MIR_6_K:       2              -             -               -
                                            MIR_6_R:       1              3             1               -
                  NoOverlapCompletionTimeExhaustive:      51            125            58              31
           NoOverlapCompletionTimeExhaustive_lifted:      42             97            44              11
  NoOverlapCompletionTimeExhaustive_lifted_weighted:      98            153           137              54
         NoOverlapCompletionTimeExhaustive_weighted:      78            289           114              53
                    NoOverlapCompletionTimeQueyrane:      71            133            99              49
             NoOverlapCompletionTimeQueyrane_lifted:     122            195           151              66
                        NoOverlapDetectedPrecedence:      37             43            38              15
                          NoOverlapDisjunctionOnEnd:      78            303            85              31
                        NoOverlapDisjunctionOnStart:     198            120           250              98
                                        ZERO_HALF_K:       5              -             -               -
                                        ZERO_HALF_R:       7             62             5              15

LNS stats                             Improv/Calls  Closed  Difficulty  TimeLimit
                    'graph_arc_lns':         10/10     90%    9.76e-01       0.10
                    'graph_cst_lns':         13/14     79%    9.75e-01       0.10
                    'graph_dec_lns':          9/10     90%    9.75e-01       0.10
                    'graph_var_lns':          9/11     82%    9.68e-01       0.10
                     'lb_relax_lns':           5/5     80%    8.80e-01       0.50
                        'rins/rens':          9/10     80%    9.58e-01       0.10
                      'rnd_cst_lns':          8/10     90%    9.74e-01       0.10
                      'rnd_var_lns':         12/12     83%    9.75e-01       0.10
         'scheduling_intervals_lns':           4/4     75%    8.21e-01       0.10
       'scheduling_precedences_lns':           3/6     83%    9.16e-01       0.10
  'scheduling_resource_windows_lns':         12/14    100%    9.95e-01       0.10
       'scheduling_time_window_lns':           4/4     75%    8.21e-01       0.10

LS stats                                    Batches  Restarts/Perturbs  LinMoves  GenMoves  CompoundMoves  Bactracks  WeightUpdates  ScoreComputed
                             'fj_restart':        1                  1         0     2'052              0          0            478        492'040
        'ls_lin_restart_compound_perturb':        2                  2         0    13'643            412      6'614            105        458'578
                   'ls_lin_restart_decay':        3                  3         0    12'995              0          0            685      1'451'792
          'ls_lin_restart_decay_compound':        3                  3         0    28'558          2'776     12'881            130      1'409'520
  'ls_lin_restart_decay_compound_perturb':        4                  4         0    41'480          3'753     18'856            260      1'762'416
                 'ls_lin_restart_perturb':        2                  2         0     4'949              0          0          1'898        975'632
                             'ls_restart':        2                  2         0     4'715              0          0          2'173        975'994
                    'ls_restart_compound':        5                  5         0    74'692          1'278     36'697            852      2'254'850
            'ls_restart_compound_perturb':        2                  2         0    34'932            214     17'356            590        884'022
                       'ls_restart_decay':        4                  4         0    11'203              0          0            751      1'183'116
              'ls_restart_decay_compound':        1                  1         0    11'566            703      5'431             52        464'605
      'ls_restart_decay_compound_perturb':        6                  6         0    59'454          5'540     26'949            324      2'807'294
               'ls_restart_decay_perturb':        3                  3         9    13'459              0          0            829      1'451'820
                     'ls_restart_perturb':        5                  5         3    12'902              0          0          5'295      2'437'585

Solutions (40)                        Num     Rank
                       'default_lp':    5    [2,8]
                    'graph_arc_lns':    1  [31,31]
                    'graph_cst_lns':    2   [4,13]
              'lb_relax_lns_bool_h':    1  [22,22]
  'ls_lin_restart_compound_perturb':    1  [16,16]
                 'ls_restart_decay':    1  [18,18]
                            'no_lp':    3    [1,9]
                          'probing':    1  [35,35]
                    'quick_restart':    3  [15,39]
              'quick_restart_no_lp':   15  [10,40]
                      'rnd_cst_lns':    2  [20,33]
                      'rnd_var_lns':    2  [19,26]
         'scheduling_intervals_lns':    1  [34,34]
       'scheduling_precedences_lns':    1  [21,21]
  'scheduling_resource_windows_lns':    1  [14,14]

Objective bounds              Num
           'initial_domain':    1
                    'no_lp':    3
      'objective_lb_search':   11
  'objective_shaving_no_lp':    1
            'reduced_costs':   36

Solution repositories    Added  Queried  Synchro
  'feasible solutions':    110      287       82
   'fj solution hints':      0        0        0
        'lp solutions':     95        8       47
                'pump':     13        7

Improving bounds shared      Num  Sym
            'default_lp':    451    0
                'max_lp':     28    0
                 'no_lp':    735    0
   'objective_lb_search':    112    0
               'probing':    365    0
          'pseudo_costs':      9    0
         'quick_restart':    813    0
   'quick_restart_no_lp':  2'235    0
         'reduced_costs':     46    0

CpSolverResponse summary:
status: OPTIMAL
objective: 930
best_bound: 930
integers: 101
booleans: 0
conflicts: 0
branches: 0
propagations: 0
integer_propagations: 0
restarts: 0
lp_iterations: 0
walltime: 2.71219
usertime: 2.71219
deterministic_time: 10.6671
gap_integral: 22.3429
solution_fingerprint: 0x9911a125f11b9da4

